jobs  (incl. supersource/sink ):	102
RESOURCES
- renewable                 : 2 R
- nonrenewable              : 4 N
- doubly constrained        : 0 D
************************************************************************
PRECEDENCE RELATIONS:
jobnr.    #modes  #successors   successors
1	1	12		2 3 4 5 6 8 9 10 11 12 13 16 
2	3	5		24 19 18 15 7 
3	3	7		30 27 26 24 23 18 17 
4	3	6		24 23 21 20 18 17 
5	3	5		27 26 21 20 18 
6	3	3		24 18 14 
7	3	5		30 29 27 23 20 
8	3	4		27 23 21 20 
9	3	4		34 27 23 18 
10	3	4		34 26 22 18 
11	3	6		41 34 32 30 25 23 
12	3	5		32 29 27 25 23 
13	3	3		41 29 20 
14	3	5		34 30 29 28 27 
15	3	1		17 
16	3	1		18 
17	3	7		43 41 36 34 32 28 25 
18	3	5		41 32 29 28 25 
19	3	5		41 32 29 28 25 
20	3	6		43 36 34 32 28 25 
21	3	8		44 41 39 37 35 34 31 29 
22	3	5		41 39 37 29 28 
23	3	5		43 40 37 36 28 
24	3	5		52 37 35 32 29 
25	3	8		44 42 40 39 37 35 33 31 
26	3	5		52 46 44 37 29 
27	3	6		43 41 39 37 36 31 
28	3	6		47 44 42 35 33 31 
29	3	6		50 45 43 40 36 33 
30	3	8		51 50 47 46 44 42 40 38 
31	3	7		61 57 54 52 46 45 38 
32	3	10		61 57 55 53 51 49 47 46 45 42 
33	3	5		61 57 54 51 38 
34	3	5		55 50 49 45 42 
35	3	8		67 60 58 55 54 53 50 49 
36	3	6		61 59 57 55 49 42 
37	3	5		60 54 50 49 47 
38	3	6		67 64 60 59 49 48 
39	3	7		63 61 59 58 57 56 51 
40	3	8		67 63 62 61 60 58 57 55 
41	3	7		67 64 63 61 60 58 56 
42	3	6		67 63 60 58 56 54 
43	3	5		67 60 58 57 49 
44	3	3		67 58 49 
45	3	6		68 64 63 62 60 58 
46	3	6		68 66 65 64 63 56 
47	3	5		68 66 63 58 56 
48	3	3		58 55 53 
49	3	5		68 66 65 63 56 
50	3	4		65 61 59 57 
51	3	8		77 70 68 67 66 65 64 62 
52	3	4		75 68 67 56 
53	3	7		77 76 71 70 68 65 62 
54	3	7		77 75 71 70 68 66 64 
55	3	7		85 77 76 70 68 66 65 
56	3	6		77 76 72 70 69 62 
57	3	10		80 79 76 75 74 73 71 70 69 68 
58	3	5		85 76 70 69 65 
59	3	8		85 80 77 76 74 73 71 69 
60	3	6		85 84 78 74 73 65 
61	3	6		80 79 77 70 68 66 
62	3	9		94 88 85 84 80 79 78 74 73 
63	3	7		84 80 79 78 77 75 71 
64	3	5		80 79 76 73 69 
65	3	6		82 81 80 79 75 72 
66	3	5		84 83 78 73 72 
67	3	6		99 94 93 89 82 78 
68	3	4		88 83 82 78 
69	3	6		99 93 91 86 84 78 
70	3	5		89 88 87 82 81 
71	3	7		101 94 93 92 90 88 82 
72	3	8		101 98 94 93 92 91 89 88 
73	3	4		98 93 89 82 
74	3	4		99 93 91 81 
75	3	7		101 98 94 92 91 90 86 
76	3	6		100 98 94 90 88 87 
77	3	6		100 98 91 89 87 86 
78	3	3		101 87 81 
79	3	5		98 92 91 89 87 
80	3	4		100 97 91 83 
81	3	4		100 98 92 90 
82	3	3		100 91 86 
83	3	3		99 95 89 
84	3	3		98 95 90 
85	3	3		97 95 90 
86	3	2		97 95 
87	3	2		96 95 
88	3	2		99 97 
89	3	1		90 
90	3	1		96 
91	3	1		95 
92	3	1		97 
93	3	1		96 
94	3	1		95 
95	3	1		102 
96	3	1		102 
97	3	1		102 
98	3	1		102 
99	3	1		102 
100	3	1		102 
101	3	1		102 
102	1	0		
************************************************************************
REQUESTS/DURATIONS
jobnr.	mode	dur	R1	R2	N1	N2	N3	N4	
------------------------------------------------------------------------
1	1	0	0	0	0	0	0	0	
2	1	5	5	6	9	6	8	5	
	2	6	3	6	8	4	6	4	
	3	7	3	6	7	2	4	3	
3	1	5	9	8	2	3	7	3	
	2	7	5	6	1	3	6	2	
	3	10	3	4	1	3	3	1	
4	1	1	7	8	7	7	6	4	
	2	8	6	8	5	5	6	3	
	3	9	6	7	3	5	6	3	
5	1	4	6	7	4	8	9	6	
	2	7	5	7	3	8	4	4	
	3	8	1	7	1	8	1	3	
6	1	8	6	9	4	9	6	7	
	2	9	6	5	3	6	5	6	
	3	10	6	3	3	5	5	5	
7	1	7	6	9	8	9	3	6	
	2	9	3	9	5	7	2	4	
	3	10	2	8	3	2	2	4	
8	1	8	8	4	9	4	5	4	
	2	9	7	3	4	3	4	4	
	3	10	6	1	2	3	2	4	
9	1	5	3	3	10	8	5	8	
	2	7	2	3	7	6	5	8	
	3	8	2	3	5	4	2	8	
10	1	1	9	6	7	2	5	9	
	2	2	8	5	4	2	5	7	
	3	10	8	4	2	2	2	7	
11	1	1	3	10	5	10	9	6	
	2	2	3	5	4	8	7	4	
	3	3	3	4	3	8	6	4	
12	1	1	10	4	9	5	8	4	
	2	8	9	3	3	4	5	3	
	3	10	9	1	3	2	4	3	
13	1	4	4	7	7	8	7	8	
	2	7	3	7	6	7	6	8	
	3	10	2	3	6	7	6	8	
14	1	4	4	7	3	7	4	7	
	2	5	3	7	2	7	3	4	
	3	7	1	6	1	6	2	3	
15	1	1	5	5	4	6	4	5	
	2	6	4	4	3	4	2	4	
	3	7	1	3	3	4	1	4	
16	1	5	2	8	6	6	6	4	
	2	6	2	5	5	5	5	4	
	3	9	2	4	5	3	3	3	
17	1	2	5	4	4	6	10	6	
	2	5	4	3	3	4	6	6	
	3	7	3	2	1	3	3	5	
18	1	3	7	6	3	6	5	3	
	2	6	7	6	3	6	5	2	
	3	9	7	6	3	4	5	2	
19	1	2	9	6	7	5	9	3	
	2	5	5	3	7	4	9	3	
	3	10	2	3	7	3	9	1	
20	1	1	2	6	2	4	9	6	
	2	4	1	6	1	4	5	4	
	3	6	1	5	1	4	2	3	
21	1	2	2	5	6	4	4	8	
	2	4	2	2	6	3	4	7	
	3	7	2	2	6	3	3	3	
22	1	3	7	7	6	10	8	9	
	2	6	7	7	5	9	6	5	
	3	8	7	7	5	8	6	3	
23	1	1	7	5	5	4	4	6	
	2	2	5	3	3	4	3	4	
	3	5	2	1	3	4	2	2	
24	1	2	9	3	7	6	9	4	
	2	9	6	1	7	4	7	4	
	3	10	4	1	7	4	6	4	
25	1	1	5	8	7	10	3	4	
	2	5	4	6	6	8	3	4	
	3	6	3	6	6	4	2	4	
26	1	3	10	8	8	4	8	8	
	2	6	9	5	8	3	5	7	
	3	10	8	2	5	2	5	5	
27	1	1	10	8	3	9	8	5	
	2	4	7	6	3	7	8	4	
	3	7	5	4	3	6	8	4	
28	1	3	4	8	9	7	7	6	
	2	5	4	8	9	6	6	5	
	3	8	4	8	9	6	2	4	
29	1	1	5	5	7	7	8	10	
	2	4	4	3	4	5	7	4	
	3	5	4	3	3	5	6	4	
30	1	5	1	7	9	9	9	5	
	2	6	1	7	9	7	8	3	
	3	8	1	6	7	7	5	2	
31	1	1	10	2	2	3	10	8	
	2	2	8	1	2	2	10	6	
	3	3	6	1	1	2	10	4	
32	1	7	10	5	8	7	5	7	
	2	9	8	4	8	7	3	6	
	3	10	7	4	6	6	3	6	
33	1	1	5	3	6	9	4	5	
	2	9	4	2	6	9	4	5	
	3	10	3	2	2	9	2	5	
34	1	2	8	6	7	4	4	10	
	2	8	7	3	6	3	4	9	
	3	10	5	3	2	3	3	9	
35	1	1	10	6	3	9	8	3	
	2	4	5	6	2	8	6	3	
	3	5	3	2	2	7	6	3	
36	1	3	2	1	8	2	6	7	
	2	8	1	1	6	2	5	7	
	3	9	1	1	6	2	3	7	
37	1	2	9	9	6	5	7	2	
	2	3	9	7	4	5	6	2	
	3	8	9	6	2	5	6	2	
38	1	4	8	7	5	4	9	8	
	2	9	6	5	4	3	7	6	
	3	10	3	4	4	2	6	6	
39	1	7	8	5	7	9	10	7	
	2	8	6	5	6	8	5	6	
	3	9	5	4	5	7	4	5	
40	1	2	3	7	4	4	6	9	
	2	4	2	6	3	2	4	8	
	3	5	2	6	1	2	4	6	
41	1	3	6	5	4	10	3	8	
	2	8	5	5	4	10	3	6	
	3	10	4	4	4	10	2	5	
42	1	2	1	2	3	6	6	7	
	2	3	1	1	2	6	4	5	
	3	9	1	1	1	6	4	4	
43	1	1	8	3	9	9	8	4	
	2	4	4	3	8	7	7	4	
	3	5	2	3	4	6	4	4	
44	1	2	6	3	5	9	10	8	
	2	5	5	3	5	8	8	7	
	3	6	4	2	5	7	7	5	
45	1	5	7	9	6	6	5	3	
	2	6	7	8	6	5	5	2	
	3	7	5	4	4	3	4	1	
46	1	2	4	6	7	6	8	4	
	2	5	3	5	5	4	7	3	
	3	10	3	4	3	3	6	3	
47	1	3	5	7	10	6	8	7	
	2	4	5	6	9	4	7	6	
	3	7	4	6	8	4	6	5	
48	1	2	4	9	6	2	5	6	
	2	5	4	9	6	2	5	4	
	3	6	4	9	5	2	4	4	
49	1	7	3	4	8	4	6	8	
	2	8	2	4	7	4	5	6	
	3	9	1	2	6	3	5	1	
50	1	2	9	7	5	3	6	7	
	2	4	6	6	3	2	5	4	
	3	8	5	6	3	2	4	3	
51	1	1	8	1	4	4	8	5	
	2	4	5	1	4	4	7	3	
	3	8	3	1	4	4	7	1	
52	1	3	6	7	7	5	4	3	
	2	7	4	6	7	4	3	3	
	3	9	4	6	6	3	3	3	
53	1	2	9	7	8	6	6	10	
	2	4	9	7	8	6	2	9	
	3	7	7	7	8	6	1	9	
54	1	2	5	1	8	7	10	8	
	2	5	4	1	7	6	9	7	
	3	8	4	1	5	6	9	6	
55	1	2	4	4	6	9	10	3	
	2	4	3	4	5	5	10	3	
	3	6	2	3	5	1	10	1	
56	1	1	9	4	6	4	6	6	
	2	4	7	3	5	4	5	4	
	3	5	5	2	5	3	5	4	
57	1	2	3	10	7	8	6	1	
	2	6	3	7	4	7	5	1	
	3	9	3	5	2	7	3	1	
58	1	3	10	9	3	6	7	10	
	2	5	9	7	2	3	7	6	
	3	7	9	5	2	3	7	5	
59	1	8	6	7	3	9	5	6	
	2	9	3	7	2	7	5	6	
	3	10	1	7	2	6	3	4	
60	1	3	5	7	2	7	7	9	
	2	4	5	4	2	6	7	8	
	3	9	4	4	2	6	5	8	
61	1	2	6	5	4	7	10	6	
	2	6	5	5	2	6	5	4	
	3	10	4	4	1	6	3	4	
62	1	1	9	8	3	6	9	5	
	2	3	8	5	3	4	9	5	
	3	4	7	1	3	2	8	5	
63	1	5	10	4	9	9	9	9	
	2	6	9	3	8	7	9	7	
	3	9	9	1	7	7	9	7	
64	1	2	6	6	7	6	7	3	
	2	5	3	4	5	3	6	3	
	3	10	1	3	4	2	5	2	
65	1	2	8	5	6	3	6	7	
	2	6	6	4	5	2	4	7	
	3	10	5	4	5	1	4	7	
66	1	2	4	6	4	9	7	7	
	2	3	4	5	3	8	7	4	
	3	8	3	5	3	8	7	2	
67	1	2	8	8	4	3	7	8	
	2	7	5	6	2	3	4	6	
	3	8	5	2	1	3	4	5	
68	1	3	7	8	4	2	9	2	
	2	8	4	7	2	1	5	1	
	3	10	4	5	2	1	5	1	
69	1	4	5	10	5	10	6	7	
	2	5	5	8	4	9	5	7	
	3	6	1	8	4	9	3	7	
70	1	1	8	5	8	2	7	2	
	2	6	5	4	5	2	7	2	
	3	7	1	4	5	2	7	2	
71	1	2	9	6	8	3	7	9	
	2	3	7	4	7	3	7	7	
	3	6	5	3	7	3	7	6	
72	1	2	7	9	6	4	7	8	
	2	9	6	5	5	3	7	5	
	3	10	6	4	5	3	5	1	
73	1	5	9	8	7	8	9	8	
	2	6	9	7	6	7	7	6	
	3	10	7	7	5	7	4	6	
74	1	3	7	10	4	8	7	10	
	2	4	7	10	2	6	4	9	
	3	5	3	10	2	3	3	9	
75	1	5	3	8	8	1	7	8	
	2	6	3	4	7	1	5	7	
	3	9	2	3	6	1	2	7	
76	1	1	5	6	2	9	8	8	
	2	5	5	2	1	9	6	7	
	3	8	5	2	1	9	5	6	
77	1	5	5	7	7	4	3	7	
	2	8	2	4	6	3	3	7	
	3	9	1	3	5	2	3	6	
78	1	3	7	8	2	7	6	6	
	2	7	7	6	1	6	5	6	
	3	10	6	5	1	4	3	6	
79	1	4	6	7	3	7	9	7	
	2	7	4	7	3	7	9	6	
	3	8	2	5	3	7	9	2	
80	1	3	2	10	4	7	4	5	
	2	4	2	9	4	7	3	5	
	3	5	2	9	3	5	3	5	
81	1	1	6	2	9	6	8	8	
	2	2	6	2	9	4	3	7	
	3	3	3	2	9	2	3	5	
82	1	1	5	5	9	7	6	8	
	2	2	3	5	8	5	5	4	
	3	7	2	5	8	5	4	3	
83	1	2	10	8	8	8	8	5	
	2	8	9	7	7	7	7	3	
	3	9	9	7	6	7	6	3	
84	1	3	6	5	2	5	6	8	
	2	5	6	4	1	5	5	5	
	3	9	4	3	1	5	4	3	
85	1	4	8	1	4	6	6	5	
	2	9	4	1	3	6	6	4	
	3	10	4	1	2	6	6	4	
86	1	3	9	8	1	2	6	7	
	2	6	9	6	1	2	4	3	
	3	10	9	6	1	2	3	2	
87	1	6	6	8	10	5	8	2	
	2	7	5	7	10	3	8	1	
	3	8	2	7	10	3	6	1	
88	1	3	8	4	2	6	6	8	
	2	6	8	3	2	5	6	6	
	3	8	8	1	2	3	6	6	
89	1	1	7	10	8	6	7	4	
	2	3	5	9	7	5	7	2	
	3	5	5	8	6	5	3	2	
90	1	2	6	10	1	8	5	10	
	2	3	6	8	1	3	4	7	
	3	9	6	8	1	2	3	7	
91	1	1	3	8	9	5	6	2	
	2	7	3	7	8	4	6	1	
	3	8	2	6	8	3	6	1	
92	1	4	5	1	8	7	3	6	
	2	5	5	1	5	6	2	5	
	3	8	3	1	4	6	2	4	
93	1	6	8	2	10	9	7	7	
	2	8	6	2	8	9	7	5	
	3	10	6	2	7	7	7	3	
94	1	5	7	10	10	8	6	1	
	2	6	6	8	9	6	6	1	
	3	8	4	8	7	4	3	1	
95	1	2	8	7	10	7	7	7	
	2	7	6	6	9	5	6	6	
	3	9	4	5	9	3	3	6	
96	1	1	10	10	6	9	2	3	
	2	6	9	8	4	8	2	3	
	3	9	7	8	2	5	2	2	
97	1	3	8	10	7	3	7	2	
	2	4	8	9	7	2	6	2	
	3	9	8	9	7	1	4	2	
98	1	5	7	5	2	2	7	10	
	2	7	7	5	2	2	5	6	
	3	8	3	5	2	2	3	5	
99	1	5	6	9	7	5	9	7	
	2	6	4	7	7	5	9	7	
	3	10	3	6	7	5	9	7	
100	1	1	4	6	4	8	8	9	
	2	3	3	4	4	7	4	9	
	3	5	3	4	4	7	1	7	
101	1	2	1	5	8	3	6	6	
	2	6	1	5	5	2	5	5	
	3	8	1	3	5	2	4	3	
102	1	0	0	0	0	0	0	0	
************************************************************************

 RESOURCE AVAILABILITIES 
	R 1	R 2	N 1	N 2	N 3	N 4
	56	62	455	477	503	462

************************************************************************
